40 40
10 8
3 8
9 7
2 4
3 10
9 6
6 1
3 10
2 2
10 10
4 3
8 5
1 2
10 10
6 1
5 6
4 5
7 5
6 4
5 3
8 1
4 10
2 5
3 9
1 1
2 4
10 3
1 5
10 10
1 1
10 3
7 8
5 1
10 5
9 6
6 2
6 6
5 6
3 2
5 6
19 19 65
19 12 77
16 19 50
12 20 83
11 14 64
15 15 99
15 12 79
16 12 76
13 14 55
18 15 73
17 11 54
12 20 92
12 16 91
17 17 85
10 12 96
18 18 56
16 16 99
17 20 98
16 19 93
18 13 54
12 19 70
20 11 78
13 20 58
20 18 69
16 18 52
12 13 68
20 11 76
15 20 92
15 18 53
12 12 66
19 12 91
19 10 71
17 10 100
18 18 98
18 16 100
15 14 76
18 10 80
10 14 75
14 16 64
19 19 65
